p cnf 7230 17
-2518 3185 -3187 0
-1200 -2180 -3190 0
810 2524 -3188 0
1200 -3191 0
-810 -3189 0
3190 3191 0
3188 3189 0
2180 -3191 0
-2524 -3189 0
3186 3187 0
2522 -3187 0
-2522 -3186 0
-818 -2182 3193 0
-3184 -3185 0
2182 -3193 0
818 -3193 0
3184 3185 0
